p cnf 200 1110
-101 57 0
-101 -26 0
-101 -90 0
-101 -98 0
-101 60 0
-101 72 0
-101 -32 0
-101 -43 0
-101 -9 0
-101 -38 0
101 -57 26 90 98 -60 -72 32 43 9 38 0
-102 44 0
-102 -78 0
-102 -5 0
-102 65 0
-102 -86 0
-102 35 0
-102 -26 0
-102 76 0
-102 59 0
-102 -90 0
102 -44 78 5 -65 86 -35 26 -76 -59 90 0
-103 26 0
-103 -29 0
-103 48 0
-103 -88 0
-103 31 0
-103 6 0
-103 5 0
-103 -35 0
-103 -49 0
-103 -42 0
103 -26 29 -48 88 -31 -6 -5 35 49 42 0
-104 -33 0
-104 -36 0
-104 -1 0
-104 -35 0
-104 -74 0
-104 77 0
-104 78 0
-104 -63 0
-104 -95 0
-104 -70 0
104 33 36 1 35 74 -77 -78 63 95 70 0
-105 -23 0
-105 -13 0
-105 24 0
-105 17 0
-105 -26 0
-105 -67 0
-105 -34 0
-105 84 0
-105 -64 0
-105 39 0
105 23 13 -24 -17 26 67 34 -84 64 -39 0
-106 -61 0
-106 99 0
-106 39 0
-106 11 0
-106 19 0
-106 17 0
-106 -34 0
-106 71 0
-106 36 0
-106 -73 0
106 61 -99 -39 -11 -19 -17 34 -71 -36 73 0
-107 -25 0
-107 43 0
-107 -17 0
-107 -50 0
-107 8 0
-107 88 0
-107 -7 0
-107 -5 0
-107 -70 0
-107 -29 0
107 25 -43 17 50 -8 -88 7 5 70 29 0
-108 27 0
-108 87 0
-108 48 0
-108 60 0
-108 41 0
-108 42 0
-108 -1 0
-108 -96 0
-108 75 0
-108 -71 0
108 -27 -87 -48 -60 -41 -42 1 96 -75 71 0
-109 4 0
-109 -53 0
-109 24 0
-109 -26 0
-109 3 0
-109 -45 0
-109 -43 0
-109 95 0
-109 16 0
-109 91 0
109 -4 53 -24 26 -3 45 43 -95 -16 -91 0
-110 -75 0
-110 36 0
-110 96 0
-110 72 0
-110 -39 0
-110 42 0
-110 69 0
-110 80 0
-110 -57 0
-110 7 0
110 75 -36 -96 -72 39 -42 -69 -80 57 -7 0
101 102 103 104 105 106 107 108 109 110 0
-111 -30 0
-111 -84 0
-111 22 0
-111 -2 0
-111 52 0
-111 24 0
-111 39 0
-111 46 0
-111 -28 0
-111 -66 0
111 30 84 -22 2 -52 -24 -39 -46 28 66 0
-112 -50 0
-112 100 0
-112 85 0
-112 -42 0
-112 83 0
-112 17 0
-112 -88 0
-112 -81 0
-112 -48 0
-112 87 0
112 50 -100 -85 42 -83 -17 88 81 48 -87 0
-113 27 0
-113 73 0
-113 -60 0
-113 -82 0
-113 -43 0
-113 -2 0
-113 38 0
-113 -26 0
-113 -87 0
-113 -40 0
113 -27 -73 60 82 43 2 -38 26 87 40 0
-114 -97 0
-114 -6 0
-114 20 0
-114 -67 0
-114 70 0
-114 -100 0
-114 -36 0
-114 -50 0
-114 -47 0
-114 49 0
114 97 6 -20 67 -70 100 36 50 47 -49 0
-115 69 0
-115 -25 0
-115 -76 0
-115 -59 0
-115 -37 0
-115 -44 0
-115 -65 0
-115 54 0
-115 -6 0
-115 8 0
115 -69 25 76 59 37 44 65 -54 6 -8 0
-116 -29 0
-116 81 0
-116 -69 0
-116 -41 0
-116 62 0
-116 -100 0
-116 3 0
-116 80 0
-116 72 0
-116 -93 0
116 29 -81 69 41 -62 100 -3 -80 -72 93 0
-117 -96 0
-117 100 0
-117 -77 0
-117 -86 0
-117 33 0
-117 95 0
-117 -87 0
-117 -83 0
-117 -47 0
-117 59 0
117 96 -100 77 86 -33 -95 87 83 47 -59 0
-118 -23 0
-118 33 0
-118 81 0
-118 99 0
-118 70 0
-118 39 0
-118 -4 0
-118 -41 0
-118 72 0
-118 -93 0
118 23 -33 -81 -99 -70 -39 4 41 -72 93 0
-119 -90 0
-119 87 0
-119 -54 0
-119 -97 0
-119 33 0
-119 28 0
-119 61 0
-119 -51 0
-119 50 0
-119 -30 0
119 90 -87 54 97 -33 -28 -61 51 -50 30 0
-120 58 0
-120 -3 0
-120 -48 0
-120 -95 0
-120 -38 0
-120 43 0
-120 100 0
-120 -81 0
-120 -45 0
-120 -23 0
120 -58 3 48 95 38 -43 -100 81 45 23 0
111 112 113 114 115 116 117 118 119 120 0
-121 -14 0
-121 97 0
-121 48 0
-121 -51 0
-121 -65 0
-121 39 0
-121 41 0
-121 59 0
-121 -37 0
-121 10 0
121 14 -97 -48 51 65 -39 -41 -59 37 -10 0
-122 86 0
-122 63 0
-122 -47 0
-122 55 0
-122 -44 0
-122 -69 0
-122 -65 0
-122 -13 0
-122 -53 0
-122 -75 0
122 -86 -63 47 -55 44 69 65 13 53 75 0
-123 89 0
-123 55 0
-123 74 0
-123 9 0
-123 -10 0
-123 46 0
-123 29 0
-123 94 0
-123 -68 0
-123 49 0
123 -89 -55 -74 -9 10 -46 -29 -94 68 -49 0
-124 63 0
-124 54 0
-124 -81 0
-124 -50 0
-124 33 0
-124 -74 0
-124 -48 0
-124 8 0
-124 -18 0
-124 -65 0
124 -63 -54 81 50 -33 74 48 -8 18 65 0
-125 34 0
-125 41 0
-125 -66 0
-125 -38 0
-125 56 0
-125 70 0
-125 -75 0
-125 93 0
-125 -18 0
-125 20 0
125 -34 -41 66 38 -56 -70 75 -93 18 -20 0
-126 -16 0
-126 77 0
-126 -28 0
-126 47 0
-126 51 0
-126 -73 0
-126 49 0
-126 22 0
-126 -85 0
-126 40 0
126 16 -77 28 -47 -51 73 -49 -22 85 -40 0
-127 -85 0
-127 32 0
-127 -6 0
-127 -2 0
-127 28 0
-127 67 0
-127 -14 0
-127 11 0
-127 -10 0
-127 20 0
127 85 -32 6 2 -28 -67 14 -11 10 -20 0
-128 52 0
-128 45 0
-128 -46 0
-128 95 0
-128 -44 0
-128 12 0
-128 5 0
-128 -29 0
-128 -26 0
-128 -54 0
128 -52 -45 46 -95 44 -12 -5 29 26 54 0
-129 -54 0
-129 -38 0
-129 64 0
-129 -1 0
-129 -29 0
-129 -71 0
-129 82 0
-129 -69 0
-129 2 0
-129 -11 0
129 54 38 -64 1 29 71 -82 69 -2 11 0
-130 -36 0
-130 1 0
-130 -45 0
-130 -67 0
-130 -77 0
-130 13 0
-130 -17 0
-130 99 0
-130 -68 0
-130 66 0
130 36 -1 45 67 77 -13 17 -99 68 -66 0
121 122 123 124 125 126 127 128 129 130 0
-131 61 0
-131 -31 0
-131 36 0
-131 -46 0
-131 -67 0
-131 70 0
-131 28 0
-131 30 0
-131 95 0
-131 47 0
131 -61 31 -36 46 67 -70 -28 -30 -95 -47 0
-132 100 0
-132 67 0
-132 49 0
-132 16 0
-132 -68 0
-132 83 0
-132 -97 0
-132 -88 0
-132 59 0
-132 -51 0
132 -100 -67 -49 -16 68 -83 97 88 -59 51 0
-133 -81 0
-133 65 0
-133 -43 0
-133 -49 0
-133 -59 0
-133 8 0
-133 91 0
-133 20 0
-133 73 0
-133 18 0
133 81 -65 43 49 59 -8 -91 -20 -73 -18 0
-134 -83 0
-134 97 0
-134 -36 0
-134 52 0
-134 -88 0
-134 -42 0
-134 32 0
-134 96 0
-134 94 0
-134 -51 0
134 83 -97 36 -52 88 42 -32 -96 -94 51 0
-135 -76 0
-135 84 0
-135 31 0
-135 -22 0
-135 -23 0
-135 32 0
-135 -82 0
-135 -36 0
-135 52 0
-135 -56 0
135 76 -84 -31 22 23 -32 82 36 -52 56 0
-136 74 0
-136 31 0
-136 7 0
-136 -72 0
-136 3 0
-136 92 0
-136 -82 0
-136 -46 0
-136 -42 0
-136 -4 0
136 -74 -31 -7 72 -3 -92 82 46 42 4 0
-137 1 0
-137 72 0
-137 -23 0
-137 -17 0
-137 50 0
-137 -92 0
-137 -52 0
-137 59 0
-137 79 0
-137 -65 0
137 -1 -72 23 17 -50 92 52 -59 -79 65 0
-138 -8 0
-138 13 0
-138 95 0
-138 97 0
-138 42 0
-138 11 0
-138 -52 0
-138 -91 0
-138 -33 0
-138 55 0
138 8 -13 -95 -97 -42 -11 52 91 33 -55 0
-139 -21 0
-139 -88 0
-139 67 0
-139 62 0
-139 -19 0
-139 -75 0
-139 -56 0
-139 29 0
-139 84 0
-139 -51 0
139 21 88 -67 -62 19 75 56 -29 -84 51 0
-140 17 0
-140 2 0
-140 91 0
-140 -77 0
-140 -4 0
-140 30 0
-140 -35 0
-140 -76 0
-140 56 0
-140 -98 0
140 -17 -2 -91 77 4 -30 35 76 -56 98 0
131 132 133 134 135 136 137 138 139 140 0
-141 -26 0
-141 38 0
-141 25 0
-141 23 0
-141 -68 0
-141 -35 0
-141 -8 0
-141 -64 0
-141 45 0
-141 60 0
141 26 -38 -25 -23 68 35 8 64 -45 -60 0
-142 -17 0
-142 -80 0
-142 -22 0
-142 -43 0
-142 8 0
-142 -89 0
-142 74 0
-142 39 0
-142 -55 0
-142 20 0
142 17 80 22 43 -8 89 -74 -39 55 -20 0
-143 -80 0
-143 49 0
-143 78 0
-143 33 0
-143 -46 0
-143 73 0
-143 -90 0
-143 -44 0
-143 86 0
-143 -27 0
143 80 -49 -78 -33 46 -73 90 44 -86 27 0
-144 23 0
-144 52 0
-144 -25 0
-144 44 0
-144 79 0
-144 -95 0
-144 46 0
-144 68 0
-144 -90 0
-144 -82 0
144 -23 -52 25 -44 -79 95 -46 -68 90 82 0
-145 -89 0
-145 -91 0
-145 -62 0
-145 8 0
-145 -78 0
-145 58 0
-145 -11 0
-145 12 0
-145 -29 0
-145 53 0
145 89 91 62 -8 78 -58 11 -12 29 -53 0
-146 -86 0
-146 -29 0
-146 16 0
-146 -76 0
-146 14 0
-146 -31 0
-146 26 0
-146 92 0
-146 7 0
-146 48 0
146 86 29 -16 76 -14 31 -26 -92 -7 -48 0
-147 -56 0
-147 36 0
-147 52 0
-147 86 0
-147 -76 0
-147 -62 0
-147 -2 0
-147 17 0
-147 -95 0
-147 33 0
147 56 -36 -52 -86 76 62 2 -17 95 -33 0
-148 -2 0
-148 51 0
-148 92 0
-148 -10 0
-148 -20 0
-148 37 0
-148 -57 0
-148 -13 0
-148 -42 0
-148 25 0
148 2 -51 -92 10 20 -37 57 13 42 -25 0
-149 54 0
-149 -75 0
-149 81 0
-149 84 0
-149 -35 0
-149 59 0
-149 -40 0
-149 -2 0
-149 24 0
-149 66 0
149 -54 75 -81 -84 35 -59 40 2 -24 -66 0
-150 -54 0
-150 39 0
-150 84 0
-150 97 0
-150 90 0
-150 -73 0
-150 28 0
-150 -63 0
-150 -62 0
-150 89 0
150 54 -39 -84 -97 -90 73 -28 63 62 -89 0
141 142 143 144 145 146 147 148 149 150 0
-151 -48 0
-151 -27 0
-151 80 0
-151 -77 0
-151 89 0
-151 -16 0
-151 -69 0
-151 -97 0
-151 -6 0
-151 83 0
151 48 27 -80 77 -89 16 69 97 6 -83 0
-152 -83 0
-152 20 0
-152 -58 0
-152 18 0
-152 100 0
-152 55 0
-152 14 0
-152 -47 0
-152 -37 0
-152 45 0
152 83 -20 58 -18 -100 -55 -14 47 37 -45 0
-153 -72 0
-153 -13 0
-153 -65 0
-153 -45 0
-153 6 0
-153 -98 0
-153 31 0
-153 2 0
-153 -38 0
-153 -64 0
153 72 13 65 45 -6 98 -31 -2 38 64 0
-154 25 0
-154 -33 0
-154 88 0
-154 -78 0
-154 -47 0
-154 51 0
-154 -77 0
-154 30 0
-154 -68 0
-154 -17 0
154 -25 33 -88 78 47 -51 77 -30 68 17 0
-155 -51 0
-155 -19 0
-155 -90 0
-155 -57 0
-155 60 0
-155 -74 0
-155 68 0
-155 56 0
-155 26 0
-155 -86 0
155 51 19 90 57 -60 74 -68 -56 -26 86 0
-156 -56 0
-156 71 0
-156 -49 0
-156 17 0
-156 51 0
-156 44 0
-156 -63 0
-156 81 0
-156 61 0
-156 84 0
156 56 -71 49 -17 -51 -44 63 -81 -61 -84 0
-157 84 0
-157 82 0
-157 24 0
-157 -48 0
-157 23 0
-157 85 0
-157 7 0
-157 -46 0
-157 83 0
-157 -32 0
157 -84 -82 -24 48 -23 -85 -7 46 -83 32 0
-158 -48 0
-158 58 0
-158 91 0
-158 38 0
-158 -73 0
-158 -95 0
-158 64 0
-158 -26 0
-158 -16 0
-158 81 0
158 48 -58 -91 -38 73 95 -64 26 16 -81 0
-159 53 0
-159 20 0
-159 88 0
-159 -67 0
-159 69 0
-159 57 0
-159 -13 0
-159 8 0
-159 -38 0
-159 33 0
159 -53 -20 -88 67 -69 -57 13 -8 38 -33 0
-160 45 0
-160 51 0
-160 5 0
-160 32 0
-160 94 0
-160 -16 0
-160 1 0
-160 39 0
-160 12 0
-160 98 0
160 -45 -51 -5 -32 -94 16 -1 -39 -12 -98 0
151 152 153 154 155 156 157 158 159 160 0
-161 46 0
-161 42 0
-161 -37 0
-161 -53 0
-161 -50 0
-161 -94 0
-161 24 0
-161 -45 0
-161 -78 0
-161 -4 0
161 -46 -42 37 53 50 94 -24 45 78 4 0
-162 75 0
-162 -40 0
-162 -17 0
-162 16 0
-162 -34 0
-162 78 0
-162 -84 0
-162 46 0
-162 -11 0
-162 98 0
162 -75 40 17 -16 34 -78 84 -46 11 -98 0
-163 -70 0
-163 -24 0
-163 -42 0
-163 27 0
-163 99 0
-163 -68 0
-163 57 0
-163 -12 0
-163 62 0
-163 84 0
163 70 24 42 -27 -99 68 -57 12 -62 -84 0
-164 3 0
-164 -38 0
-164 80 0
-164 -36 0
-164 82 0
-164 -22 0
-164 60 0
-164 -68 0
-164 94 0
-164 -30 0
164 -3 38 -80 36 -82 22 -60 68 -94 30 0
-165 -55 0
-165 69 0
-165 -33 0
-165 39 0
-165 71 0
-165 -10 0
-165 19 0
-165 -61 0
-165 -34 0
-165 -4 0
165 55 -69 33 -39 -71 10 -19 61 34 4 0
-166 53 0
-166 -55 0
-166 -61 0
-166 20 0
-166 28 0
-166 70 0
-166 -63 0
-166 25 0
-166 -96 0
-166 -19 0
166 -53 55 61 -20 -28 -70 63 -25 96 19 0
-167 9 0
-167 20 0
-167 -78 0
-167 75 0
-167 -33 0
-167 26 0
-167 76 0
-167 -65 0
-167 -1 0
-167 74 0
167 -9 -20 78 -75 33 -26 -76 65 1 -74 0
-168 -30 0
-168 -12 0
-168 98 0
-168 65 0
-168 -13 0
-168 -46 0
-168 4 0
-168 36 0
-168 73 0
-168 -77 0
168 30 12 -98 -65 13 46 -4 -36 -73 77 0
-169 98 0
-169 38 0
-169 64 0
-169 51 0
-169 20 0
-169 87 0
-169 -57 0
-169 43 0
-169 -26 0
-169 -94 0
169 -98 -38 -64 -51 -20 -87 57 -43 26 94 0
-170 -64 0
-170 -40 0
-170 -39 0
-170 28 0
-170 50 0
-170 -99 0
-170 -68 0
-170 -47 0
-170 -67 0
-170 -69 0
170 64 40 39 -28 -50 99 68 47 67 69 0
161 162 163 164 165 166 167 168 169 170 0
-171 13 0
-171 14 0
-171 -72 0
-171 49 0
-171 -85 0
-171 10 0
-171 -39 0
-171 82 0
-171 -76 0
-171 -11 0
171 -13 -14 72 -49 85 -10 39 -82 76 11 0
-172 -42 0
-172 26 0
-172 75 0
-172 -8 0
-172 79 0
-172 47 0
-172 -64 0
-172 23 0
-172 78 0
-172 38 0
172 42 -26 -75 8 -79 -47 64 -23 -78 -38 0
-173 29 0
-173 25 0
-173 -100 0
-173 -81 0
-173 92 0
-173 39 0
-173 70 0
-173 96 0
-173 -26 0
-173 -77 0
173 -29 -25 100 81 -92 -39 -70 -96 26 77 0
-174 -13 0
-174 -47 0
-174 -34 0
-174 -22 0
-174 -1 0
-174 -72 0
-174 8 0
-174 -41 0
-174 -44 0
-174 70 0
174 13 47 34 22 1 72 -8 41 44 -70 0
-175 -68 0
-175 -99 0
-175 81 0
-175 -87 0
-175 62 0
-175 -96 0
-175 67 0
-175 -91 0
-175 -78 0
-175 -77 0
175 68 99 -81 87 -62 96 -67 91 78 77 0
-176 29 0
-176 3 0
-176 59 0
-176 -4 0
-176 49 0
-176 -98 0
-176 -97 0
-176 85 0
-176 51 0
-176 48 0
176 -29 -3 -59 4 -49 98 97 -85 -51 -48 0
-177 -29 0
-177 -4 0
-177 33 0
-177 7 0
-177 21 0
-177 -38 0
-177 62 0
-177 -92 0
-177 -50 0
-177 -31 0
177 29 4 -33 -7 -21 38 -62 92 50 31 0
-178 -69 0
-178 -12 0
-178 35 0
-178 -63 0
-178 -53 0
-178 61 0
-178 29 0
-178 15 0
-178 27 0
-178 16 0
178 69 12 -35 63 53 -61 -29 -15 -27 -16 0
-179 -66 0
-179 -3 0
-179 -89 0
-179 -18 0
-179 44 0
-179 -83 0
-179 95 0
-179 85 0
-179 25 0
-179 43 0
179 66 3 89 18 -44 83 -95 -85 -25 -43 0
-180 61 0
-180 -37 0
-180 70 0
-180 -4 0
-180 10 0
-180 89 0
-180 18 0
-180 -98 0
-180 -48 0
-180 -49 0
180 -61 37 -70 4 -10 -89 -18 98 48 49 0
171 172 173 174 175 176 177 178 179 180 0
-181 -6 0
-181 35 0
-181 -93 0
-181 100 0
-181 -19 0
-181 -8 0
-181 3 0
-181 -54 0
-181 -84 0
-181 -76 0
181 6 -35 93 -100 19 8 -3 54 84 76 0
-182 -44 0
-182 -23 0
-182 10 0
-182 38 0
-182 54 0
-182 -66 0
-182 47 0
-182 -20 0
-182 93 0
-182 3 0
182 44 23 -10 -38 -54 66 -47 20 -93 -3 0
-183 37 0
-183 20 0
-183 -15 0
-183 36 0
-183 -35 0
-183 -77 0
-183 43 0
-183 33 0
-183 -81 0
-183 68 0
183 -37 -20 15 -36 35 77 -43 -33 81 -68 0
-184 28 0
-184 22 0
-184 97 0
-184 -78 0
-184 45 0
-184 -29 0
-184 14 0
-184 58 0
-184 100 0
-184 -46 0
184 -28 -22 -97 78 -45 29 -14 -58 -100 46 0
-185 -37 0
-185 73 0
-185 -80 0
-185 65 0
-185 -27 0
-185 11 0
-185 96 0
-185 52 0
-185 -8 0
-185 -88 0
185 37 -73 80 -65 27 -11 -96 -52 8 88 0
-186 -84 0
-186 7 0
-186 -72 0
-186 -6 0
-186 69 0
-186 73 0
-186 -21 0
-186 -31 0
-186 34 0
-186 -54 0
186 84 -7 72 6 -69 -73 21 31 -34 54 0
-187 -6 0
-187 89 0
-187 79 0
-187 56 0
-187 -43 0
-187 -84 0
-187 78 0
-187 -12 0
-187 -3 0
-187 8 0
187 6 -89 -79 -56 43 84 -78 12 3 -8 0
-188 -90 0
-188 56 0
-188 60 0
-188 -93 0
-188 34 0
-188 72 0
-188 67 0
-188 -20 0
-188 -7 0
-188 -83 0
188 90 -56 -60 93 -34 -72 -67 20 7 83 0
-189 7 0
-189 -40 0
-189 27 0
-189 84 0
-189 17 0
-189 -100 0
-189 -83 0
-189 99 0
-189 -70 0
-189 -9 0
189 -7 40 -27 -84 -17 100 83 -99 70 9 0
-190 -26 0
-190 -68 0
-190 -21 0
-190 -6 0
-190 78 0
-190 64 0
-190 -56 0
-190 10 0
-190 -32 0
-190 -88 0
190 26 68 21 6 -78 -64 56 -10 32 88 0
181 182 183 184 185 186 187 188 189 190 0
-191 49 0
-191 -60 0
-191 9 0
-191 -20 0
-191 -47 0
-191 45 0
-191 -50 0
-191 -32 0
-191 -8 0
-191 -61 0
191 -49 60 -9 20 47 -45 50 32 8 61 0
-192 -46 0
-192 -24 0
-192 14 0
-192 -75 0
-192 -88 0
-192 64 0
-192 71 0
-192 -21 0
-192 16 0
-192 -55 0
192 46 24 -14 75 88 -64 -71 21 -16 55 0
-193 -25 0
-193 -35 0
-193 -40 0
-193 87 0
-193 89 0
-193 -4 0
-193 22 0
-193 45 0
-193 -63 0
-193 78 0
193 25 35 40 -87 -89 4 -22 -45 63 -78 0
-194 -39 0
-194 47 0
-194 -30 0
-194 60 0
-194 67 0
-194 -94 0
-194 -65 0
-194 -3 0
-194 56 0
-194 -19 0
194 39 -47 30 -60 -67 94 65 3 -56 19 0
-195 63 0
-195 12 0
-195 -37 0
-195 -23 0
-195 -80 0
-195 -69 0
-195 45 0
-195 78 0
-195 22 0
-195 -29 0
195 -63 -12 37 23 80 69 -45 -78 -22 29 0
-196 -27 0
-196 61 0
-196 89 0
-196 58 0
-196 -44 0
-196 -1 0
-196 -100 0
-196 51 0
-196 -99 0
-196 -17 0
196 27 -61 -89 -58 44 1 100 -51 99 17 0
-197 94 0
-197 -97 0
-197 -90 0
-197 -12 0
-197 41 0
-197 16 0
-197 -71 0
-197 57 0
-197 7 0
-197 37 0
197 -94 97 90 12 -41 -16 71 -57 -7 -37 0
-198 90 0
-198 -44 0
-198 16 0
-198 -78 0
-198 -98 0
-198 36 0
-198 81 0
-198 -51 0
-198 94 0
-198 -1 0
198 -90 44 -16 78 98 -36 -81 51 -94 1 0
-199 -17 0
-199 44 0
-199 -23 0
-199 41 0
-199 -7 0
-199 18 0
-199 89 0
-199 9 0
-199 69 0
-199 -73 0
199 17 -44 23 -41 7 -18 -89 -9 -69 73 0
-200 35 0
-200 -26 0
-200 24 0
-200 -49 0
-200 1 0
-200 6 0
-200 -15 0
-200 3 0
-200 83 0
-200 -18 0
200 -35 26 -24 49 -1 -6 15 -3 -83 18 0
191 192 193 194 195 196 197 198 199 200 0
